40
1 0 6
2 0 6
2 1 50
3 0 54
3 1 13
3 2 40
4 0 3
4 1 22
4 2 56
4 3 39
5 0 29
5 1 26
5 2 49
5 3 9
5 4 52
6 0 1
6 1 43
6 2 54
6 3 13
6 4 42
6 5 18
7 0 17
7 1 57
7 2 30
7 3 28
7 4 18
7 5 39
7 6 31
8 0 25
8 1 4
8 2 31
8 3 43
8 4 47
8 5 53
8 6 49
8 7 27
9 0 7
9 1 8
9 2 54
9 3 39
9 4 22
9 5 28
9 6 35
9 7 53
9 8 24
10 0 54
10 1 58
10 2 14
10 3 40
10 4 11
10 5 53
10 6 17
10 7 24
10 8 6
10 9 41
11 0 20
11 1 7
11 2 50
11 3 60
11 4 40
11 5 14
11 6 32
11 7 45
11 8 32
11 9 11
11 10 36
12 0 26
12 1 10
12 2 5
12 3 24
12 4 26
12 5 5
12 6 9
12 7 32
12 8 6
12 9 7
12 10 9
12 11 38
13 0 37
13 1 35
13 2 47
13 3 29
13 4 60
13 5 54
13 6 44
13 7 53
13 8 47
13 9 50
13 10 35
13 11 40
13 12 6
14 0 23
14 1 13
14 2 34
14 3 24
14 4 27
14 5 2
14 6 51
14 7 52
14 8 22
14 9 17
14 10 26
14 11 14
14 12 36
14 13 21
15 0 4
15 1 53
15 2 19
15 3 47
15 4 22
15 5 58
15 6 32
15 7 17
15 8 50
15 9 15
15 10 11
15 11 5
15 12 38
15 13 50
15 14 15
16 0 26
16 1 15
16 2 57
16 3 40
16 4 60
16 5 12
16 6 31
16 7 56
16 8 34
16 9 13
16 10 60
16 11 23
16 12 7
16 13 46
16 14 4
16 15 36
17 0 28
17 1 45
17 2 41
17 3 33
17 4 47
17 5 47
17 6 6
17 7 20
17 8 48
17 9 25
17 10 26
17 11 34
17 12 30
17 13 2
17 14 60
17 15 53
17 16 32
18 0 39
18 1 50
18 2 5
18 3 54
18 4 22
18 5 26
18 6 52
18 7 16
18 8 32
18 9 21
18 10 5
18 11 13
18 12 57
18 13 46
18 14 13
18 15 15
18 16 14
18 17 8
19 0 18
19 1 19
19 2 40
19 3 54
19 4 23
19 5 15
19 6 51
19 7 28
19 8 40
19 9 9
19 10 2
19 11 4
19 12 34
19 13 2
19 14 6
19 15 23
19 16 17
19 17 53
19 18 17
20 0 50
20 1 57
20 2 56
20 3 21
20 4 55
20 5 12
20 6 18
20 7 52
20 8 12
20 9 48
20 10 43
20 11 24
20 12 34
20 13 42
20 14 7
20 15 15
20 16 60
20 17 34
20 18 42
20 19 43
21 0 12
21 1 42
21 2 18
21 3 8
21 4 11
21 5 2
21 6 16
21 7 21
21 8 23
21 9 21
21 10 25
21 11 51
21 12 30
21 13 10
21 14 27
21 15 21
21 16 8
21 17 45
21 18 7
21 19 14
21 20 9
22 0 16
22 1 58
22 2 56
22 3 57
22 4 8
22 5 23
22 6 42
22 7 40
22 8 47
22 9 22
22 10 54
22 11 21
22 12 54
22 13 7
22 14 50
22 15 57
22 16 16
22 17 37
22 18 2
22 19 45
22 20 13
22 21 27
23 0 4
23 1 24
23 2 8
23 3 47
23 4 45
23 5 46
23 6 31
23 7 17
23 8 57
23 9 10
23 10 35
23 11 9
23 12 35
23 13 51
23 14 27
23 15 44
23 16 28
23 17 41
23 18 16
23 19 26
23 20 1
23 21 27
23 22 51
24 0 41
24 1 3
24 2 10
24 3 1
24 4 26
24 5 8
24 6 23
24 7 4
24 8 14
24 9 28
24 10 24
24 11 33
24 12 50
24 13 39
24 14 46
24 15 19
24 16 17
24 17 32
24 18 34
24 19 7
24 20 20
24 21 39
24 22 15
24 23 32
25 0 5
25 1 44
25 2 18
25 3 59
25 4 1
25 5 49
25 6 41
25 7 1
25 8 51
25 9 28
25 10 50
25 11 8
25 12 60
25 13 24
25 14 6
25 15 46
25 16 17
25 17 26
25 18 20
25 19 35
25 20 24
25 21 32
25 22 18
25 23 34
25 24 17
26 0 30
26 1 16
26 2 2
26 3 27
26 4 22
26 5 31
26 6 35
26 7 31
26 8 45
26 9 7
26 10 8
26 11 1
26 12 35
26 13 49
26 14 4
26 15 6
26 16 3
26 17 2
26 18 57
26 19 22
26 20 40
26 21 32
26 22 17
26 23 17
26 24 43
26 25 48
27 0 14
27 1 60
27 2 36
27 3 31
27 4 31
27 5 8
27 6 47
27 7 43
27 8 44
27 9 8
27 10 20
27 11 18
27 12 37
27 13 16
27 14 19
27 15 60
27 16 26
27 17 7
27 18 33
27 19 9
27 20 16
27 21 34
27 22 19
27 23 50
27 24 48
27 25 15
27 26 21
28 0 4
28 1 59
28 2 57
28 3 47
28 4 8
28 5 49
28 6 52
28 7 14
28 8 32
28 9 51
28 10 11
28 11 10
28 12 50
28 13 15
28 14 43
28 15 52
28 16 24
28 17 48
28 18 33
28 19 10
28 20 57
28 21 37
28 22 33
28 23 18
28 24 22
28 25 58
28 26 50
28 27 53
29 0 12
29 1 17
29 2 1
29 3 48
29 4 39
29 5 12
29 6 1
29 7 12
29 8 16
29 9 20
29 10 47
29 11 19
29 12 20
29 13 53
29 14 13
29 15 37
29 16 51
29 17 40
29 18 4
29 19 29
29 20 42
29 21 55
29 22 31
29 23 20
29 24 4
29 25 48
29 26 9
29 27 10
29 28 27
30 0 54
30 1 53
30 2 44
30 3 51
30 4 46
30 5 33
30 6 45
30 7 51
30 8 31
30 9 1
30 10 6
30 11 41
30 12 51
30 13 4
30 14 44
30 15 39
30 16 9
30 17 25
30 18 48
30 19 15
30 20 30
30 21 30
30 22 12
30 23 6
30 24 44
30 25 10
30 26 38
30 27 26
30 28 54
30 29 8
31 0 41
31 1 37
31 2 41
31 3 1
31 4 45
31 5 16
31 6 47
31 7 6
31 8 41
31 9 37
31 10 13
31 11 21
31 12 33
31 13 17
31 14 59
31 15 24
31 16 43
31 17 54
31 18 42
31 19 11
31 20 22
31 21 42
31 22 6
31 23 43
31 24 4
31 25 23
31 26 24
31 27 11
31 28 60
31 29 60
31 30 60
32 0 7
32 1 55
32 2 13
32 3 10
32 4 45
32 5 60
32 6 32
32 7 24
32 8 17
32 9 16
32 10 15
32 11 41
32 12 2
32 13 58
32 14 19
32 15 12
32 16 44
32 17 19
32 18 4
32 19 33
32 20 6
32 21 27
32 22 53
32 23 7
32 24 44
32 25 29
32 26 7
32 27 53
32 28 56
32 29 54
32 30 31
32 31 51
33 0 57
33 1 54
33 2 35
33 3 53
33 4 41
33 5 14
33 6 12
33 7 37
33 8 56
33 9 43
33 10 21
33 11 50
33 12 42
33 13 30
33 14 14
33 15 18
33 16 17
33 17 41
33 18 37
33 19 4
33 20 48
33 21 2
33 22 31
33 23 48
33 24 40
33 25 36
33 26 36
33 27 23
33 28 19
33 29 48
33 30 25
33 31 9
33 32 38
34 0 6
34 1 2
34 2 25
34 3 29
34 4 18
34 5 17
34 6 52
34 7 1
34 8 17
34 9 39
34 10 29
34 11 30
34 12 29
34 13 40
34 14 48
34 15 20
34 16 38
34 17 23
34 18 25
34 19 54
34 20 21
34 21 9
34 22 31
34 23 48
34 24 48
34 25 44
34 26 42
34 27 40
34 28 30
34 29 45
34 30 5
34 31 14
34 32 44
34 33 42
35 0 48
35 1 43
35 2 27
35 3 9
35 4 16
35 5 32
35 6 33
35 7 56
35 8 47
35 9 59
35 10 49
35 11 20
35 12 20
35 13 13
35 14 55
35 15 33
35 16 53
35 17 55
35 18 19
35 19 7
35 20 5
35 21 23
35 22 3
35 23 57
35 24 39
35 25 43
35 26 35
35 27 5
35 28 36
35 29 48
35 30 12
35 31 28
35 32 59
35 33 47
35 34 49
36 0 21
36 1 12
36 2 29
36 3 57
36 4 60
36 5 35
36 6 59
36 7 22
36 8 52
36 9 6
36 10 10
36 11 43
36 12 26
36 13 22
36 14 9
36 15 55
36 16 27
36 17 14
36 18 33
36 19 18
36 20 6
36 21 31
36 22 26
36 23 48
36 24 22
36 25 56
36 26 16
36 27 34
36 28 52
36 29 11
36 30 51
36 31 51
36 32 36
36 33 35
36 34 38
36 35 5
37 0 29
37 1 53
37 2 34
37 3 22
37 4 47
37 5 10
37 6 17
37 7 1
37 8 31
37 9 47
37 10 34
37 11 37
37 12 48
37 13 57
37 14 15
37 15 56
37 16 22
37 17 24
37 18 58
37 19 30
37 20 54
37 21 56
37 22 19
37 23 51
37 24 60
37 25 17
37 26 42
37 27 40
37 28 40
37 29 19
37 30 36
37 31 10
37 32 51
37 33 15
37 34 57
37 35 52
37 36 22
38 0 60
38 1 21
38 2 60
38 3 15
38 4 23
38 5 45
38 6 47
38 7 15
38 8 56
38 9 11
38 10 6
38 11 11
38 12 37
38 13 31
38 14 59
38 15 12
38 16 28
38 17 22
38 18 28
38 19 27
38 20 19
38 21 42
38 22 26
38 23 16
38 24 44
38 25 36
38 26 28
38 27 12
38 28 11
38 29 21
38 30 4
38 31 36
38 32 47
38 33 50
38 34 28
38 35 2
38 36 14
38 37 50
39 0 3
39 1 22
39 2 57
39 3 37
39 4 14
39 5 6
39 6 11
39 7 19
39 8 60
39 9 56
39 10 55
39 11 24
39 12 44
39 13 7
39 14 45
39 15 40
39 16 52
39 17 58
39 18 57
39 19 28
39 20 37
39 21 19
39 22 30
39 23 57
39 24 48
39 25 3
39 26 53
39 27 46
39 28 15
39 29 4
39 30 38
39 31 17
39 32 46
39 33 60
39 34 19
39 35 23
39 36 21
39 37 46
39 38 8
